Geographic Exponential Decay
40 167 289 258 185 124 133 223 111 112 36 173 196 241 149 312 104 183 203 218 303 307 273 236 247 58 109 254 117 230 137 246 292 43 96 288 41 161 298 168 177
p edge 320 324
e 0 2 1.0
e 1 174 3.0
e 1 0 6.0
e 3 178 5.0
e 3 1 5.0
e 4 306 3.0
e 4 3 3.0
e 5 158 1.0
e 5 4 2.0
e 6 159 5.0
e 6 5 6.0
e 7 53 4.0
e 7 6 1.0
e 8 73 3.0
e 8 7 3.0
e 9 256 1.0
e 9 8 5.0
e 10 122 2.0
e 10 9 5.0
e 11 218 33.0
e 11 10 4.0
e 12 211 1.0
e 12 11 1.0
e 13 40 1.0
e 13 12 4.0
e 14 167 38.0
e 14 13 1.0
e 15 102 1.0
e 15 14 2.0
e 16 19 1.0
e 16 15 1.0
e 17 190 1.0
e 17 16 9.0
e 18 126 19.0
e 18 281 18.0
e 18 17 16.0
e 20 123 6.0
e 20 18 7.0
e 21 218 98.0
e 22 147 4.0
e 22 20 1.0
e 23 57 6.0
e 23 22 4.0
e 24 104 90.0
e 24 23 1.0
e 25 74 1.0
e 25 24 1.0
e 26 48 1.0
e 26 25 3.0
e 27 61 3.0
e 27 26 1.0
e 28 38 2.0
e 28 27 2.0
e 29 151 11.0
e 29 28 2.0
e 30 209 5.0
e 30 29 1.0
e 31 151 3.0
e 32 199 1.0
e 32 30 1.0
e 33 75 1.0
e 33 32 2.0
e 34 35 2.0
e 34 33 1.0
e 36 156 97.0
e 36 274 84.0
e 36 167 71.0
e 36 143 30.0
e 36 45 42.0
e 37 149 36.0
e 37 34 10.0
e 39 65 1.0
e 39 37 7.0
e 41 124 95.0
e 41 227 43.0
e 41 42 4.0
e 41 95 38.0
e 41 182 21.0
e 41 39 28.0
e 43 141 40.0
e 43 69 75.0
e 43 291 69.0
e 43 267 76.0
e 43 155 71.0
e 43 41 69.0
e 44 109 41.0
e 44 43 7.0
e 46 100 2.0
e 46 44 1.0
e 47 200 2.0
e 47 46 2.0
e 49 246 63.0
e 50 253 4.0
e 50 47 6.0
e 51 278 15.0
e 52 238 2.0
e 52 50 4.0
e 54 138 2.0
e 54 52 10.0
e 55 56 2.0
e 55 54 2.0
e 58 261 25.0
e 58 112 59.0
e 58 282 92.0
e 58 314 59.0
e 58 90 37.0
e 59 91 25.0
e 59 55 1.0
e 60 62 1.0
e 60 59 2.0
e 63 275 3.0
e 63 60 5.0
e 64 66 4.0
e 64 63 1.0
e 67 68 1.0
e 67 64 1.0
e 70 221 10.0
e 70 67 1.0
e 71 201 1.0
e 71 70 1.0
e 72 91 22.0
e 72 295 15.0
e 76 218 65.0
e 77 167 40.0
e 78 172 1.0
e 78 71 4.0
e 79 202 11.0
e 79 78 2.0
e 80 228 2.0
e 80 79 5.0
e 81 116 20.0
e 81 82 7.0
e 81 80 7.0
e 83 246 69.0
e 84 117 10.0
e 84 81 16.0
e 85 175 8.0
e 85 84 3.0
e 86 313 4.0
e 86 85 4.0
e 87 301 3.0
e 87 86 3.0
e 88 124 77.0
e 89 235 1.0
e 89 87 1.0
e 92 179 1.0
e 92 89 5.0
e 93 94 5.0
e 93 92 4.0
e 96 120 66.0
e 96 240 39.0
e 96 317 70.0
e 96 232 77.0
e 96 268 50.0
e 97 111 49.0
e 98 210 3.0
e 98 93 2.0
e 99 176 6.0
e 99 98 9.0
e 101 112 63.0
e 103 104 66.0
e 104 105 58.0
e 104 106 31.0
e 104 197 33.0
e 107 111 67.0
e 108 173 49.0
e 109 220 50.0
e 109 121 76.0
e 109 257 100.0
e 109 110 77.0
e 111 273 100.0
e 111 112 47.0
e 111 164 47.0
e 112 124 89.0
e 112 163 91.0
e 113 152 7.0
e 114 280 6.0
e 114 99 1.0
e 115 305 4.0
e 115 114 7.0
e 117 118 6.0
e 117 226 40.0
e 117 287 50.0
e 117 119 71.0
e 124 315 35.0
e 124 191 16.0
e 125 167 96.0
e 127 250 22.0
e 127 170 23.0
e 127 115 4.0
e 128 129 9.0
e 128 127 1.0
e 130 154 1.0
e 130 128 6.0
e 131 132 46.0
e 131 271 40.0
e 131 203 65.0
e 131 130 15.0
e 133 134 21.0
e 133 135 4.0
e 133 136 5.0
e 133 137 75.0
e 133 139 86.0
e 133 131 100.0
e 137 140 91.0
e 137 142 50.0
e 137 168 86.0
e 137 144 5.0
e 145 146 2.0
e 145 133 60.0
e 148 216 1.0
e 148 145 1.0
e 149 150 47.0
e 149 251 85.0
e 149 152 42.0
e 149 318 12.0
e 153 302 11.0
e 153 148 3.0
e 157 160 4.0
e 157 153 5.0
e 161 162 17.0
e 161 165 93.0
e 161 166 43.0
e 161 167 59.0
e 161 177 99.0
e 168 169 85.0
e 168 171 99.0
e 168 259 48.0
e 168 192 72.0
e 173 181 9.0
e 173 215 96.0
e 173 177 87.0
e 173 307 71.0
e 177 198 1.0
e 177 252 4.0
e 177 180 1.0
e 183 222 24.0
e 183 184 25.0
e 183 185 45.0
e 183 270 65.0
e 183 186 60.0
e 183 157 24.0
e 185 187 55.0
e 185 188 31.0
e 185 189 29.0
e 185 193 39.0
e 194 230 11.0
e 195 196 5.0
e 196 203 69.0
e 196 204 52.0
e 196 205 54.0
e 196 206 94.0
e 203 207 46.0
e 203 208 53.0
e 203 269 66.0
e 212 213 24.0
e 212 214 23.0
e 212 183 65.0
e 217 218 89.0
e 218 219 73.0
e 223 224 86.0
e 223 225 61.0
e 223 229 67.0
e 223 230 59.0
e 223 231 33.0
e 230 316 22.0
e 230 303 65.0
e 230 232 17.0
e 233 234 6.0
e 233 212 15.0
e 236 237 92.0
e 236 239 4.0
e 236 298 91.0
e 236 241 20.0
e 236 242 42.0
e 241 254 70.0
e 241 242 82.0
e 241 243 41.0
e 241 244 89.0
e 242 262 49.0
e 243 245 16.0
e 246 247 73.0
e 246 248 31.0
e 246 249 54.0
e 247 254 6.0
e 247 255 97.0
e 247 258 84.0
e 247 319 36.0
e 254 258 19.0
e 254 260 90.0
e 254 263 99.0
e 258 277 27.0
e 258 293 93.0
e 258 264 11.0
e 265 309 1.0
e 265 233 1.0
e 266 272 2.0
e 266 273 78.0
e 273 276 6.0
e 273 278 50.0
e 273 279 79.0
e 279 283 1.0
e 279 284 3.0
e 283 285 23.0
e 286 288 41.0
e 288 289 12.0
e 288 290 88.0
e 288 292 15.0
e 288 293 53.0
e 289 292 32.0
e 289 294 73.0
e 289 296 83.0
e 289 297 30.0
e 292 298 68.0
e 292 299 34.0
e 292 300 28.0
e 298 303 80.0
e 298 304 10.0
e 298 307 96.0
e 303 307 66.0
e 303 308 61.0
e 303 310 72.0
e 307 311 57.0
e 307 312 82.0
